
Gurobi 10.0.1 (linux64) logging started Sun Nov 26 18:04:13 2023

Set parameter LogFile to value "ArtificialInstance/ExperimentV2/S4T5K3/BaSp/gurobi91.txt"
Gurobi Optimizer version 10.0.1 build v10.0.1rc0 (linux64)

CPU model: AMD EPYC 7H12 64-Core Processor, instruction set [SSE2|AVX|AVX2]
Thread count: 128 physical cores, 128 logical processors, using up to 32 threads

Academic license 656792 - for non-commercial use only - registered to b.___@student.vu.nl
Optimize a model with 6620 rows, 10000 columns and 34240 nonzeros
Model fingerprint: 0xa2e04b90
Variable types: 0 continuous, 10000 integer (10000 binary)
Coefficient statistics:
  Matrix range     [1e+00, 1e+00]
  Objective range  [9e-01, 2e+01]
  Bounds range     [1e+00, 1e+00]
  RHS range        [1e+00, 1e+00]
Presolve time: 0.05s
Presolved: 6620 rows, 10000 columns, 34240 nonzeros
Variable types: 0 continuous, 10000 integer (10000 binary)
Found heuristic solution: objective 641.0328958
Found heuristic solution: objective 359.4325828

Root relaxation: objective 5.382560e+01, 7084 iterations, 0.18 seconds (0.12 work units)

    Nodes    |    Current Node    |     Objective Bounds      |     Work
 Expl Unexpl |  Obj  Depth IntInf | Incumbent    BestBd   Gap | It/Node Time

     0     0   53.82560    0 1560  359.43258   53.82560  85.0%     -    0s
H    0     0                     345.4208747   53.82560  84.4%     -    0s
H    0     0                     113.1234162   53.82560  52.4%     -    0s
     0     0   62.84457    0 2467  113.12342   62.84457  44.4%     -    1s
H    0     0                     105.5439583   62.84457  40.5%     -    1s
     0     0   62.84457    0 2463  105.54396   62.84457  40.5%     -    1s
     0     0   66.62461    0 2254  105.54396   66.62461  36.9%     -    2s
     0     0   68.14159    0 2247  105.54396   68.14159  35.4%     -    2s
     0     0   70.44473    0 2243  105.54396   70.44473  33.3%     -    3s
H    0     0                     103.1615667   70.44473  31.7%     -    3s
     0     0   70.49575    0 2176  103.16157   70.49575  31.7%     -    3s
     0     0   70.49610    0 2183  103.16157   70.49610  31.7%     -    3s
     0     0   71.18704    0 2261  103.16157   71.18704  31.0%     -    3s
H    0     0                      98.5008023   71.22288  27.7%     -    4s
     0     0   71.22288    0 2221   98.50080   71.22288  27.7%     -    4s
     0     0   71.25159    0 2062   98.50080   71.25159  27.7%     -    4s
     0     0   71.25601    0 2087   98.50080   71.25601  27.7%     -    4s
H    0     0                      94.3044050   71.75472  23.9%     -    4s
     0     0   71.75472    0 2228   94.30441   71.75472  23.9%     -    4s
     0     0   71.89675    0 2104   94.30441   71.89675  23.8%     -    4s
     0     0   71.89747    0 2107   94.30441   71.89747  23.8%     -    4s
     0     0   72.51428    0 2249   94.30441   72.51428  23.1%     -    5s
H    0     0                      90.3782304   72.62746  19.6%     -    5s
     0     0   72.62746    0 2276   90.37823   72.62746  19.6%     -    5s
     0     0   72.62986    0 2263   90.37823   72.62986  19.6%     -    5s
     0     0   72.78884    0 2149   90.37823   72.78884  19.5%     -    5s
     0     0   72.79003    0 2126   90.37823   72.79003  19.5%     -    5s
     0     0   73.10815    0 2199   90.37823   73.10815  19.1%     -    6s
     0     0   73.14269    0 2209   90.37823   73.14269  19.1%     -    6s
     0     0   73.14280    0 2199   90.37823   73.14280  19.1%     -    6s
H    0     0                      89.9218970   73.14280  18.7%     -    6s
     0     0   73.14280    0 2167   89.92190   73.14280  18.7%     -    6s
     0     0   73.15570    0 2145   89.92190   73.15570  18.6%     -    6s
     0     0   73.15570    0 2141   89.92190   73.15570  18.6%     -    6s
H    0     0                      89.7397903   73.15570  18.5%     -    7s
     0     0   73.15570    0 2150   89.73979   73.15570  18.5%     -    7s
     0     0   73.15570    0 1894   89.73979   73.15570  18.5%     -    7s
H    0     0                      89.3565725   73.15570  18.1%     -    7s
     0     2   73.15570    0 1894   89.35657   73.15570  18.1%     -    9s
     3     8   73.94163    2 1827   89.35657   73.68734  17.5%  2484   10s
H  230   172                      89.2958070   76.15152  14.7%  1074   13s
H  231   172                      87.3783549   76.15152  12.8%  1071   13s
   507   231     cutoff   12        87.37835   76.15152  12.8%   713   15s
H  788   267                      87.1059277   76.56133  12.1%   597   16s
  2052   401     cutoff   12        87.10593   77.13323  11.4%   404   20s
  4037    79   79.53726   13 1667   87.10593   79.03477  9.27%   334   25s

Cutting planes:
  Gomory: 11
  Zero half: 593
  RLT: 685

Explored 4548 nodes (1500325 simplex iterations) in 28.04 seconds (29.96 work units)
Thread count was 32 (of 128 available processors)

Solution count 10: 87.1059 87.3784 89.2958 ... 103.162

Optimal solution found (tolerance 1.00e-04)
Best objective 8.710592771568e+01, best bound 8.710592771568e+01, gap 0.0000%
